%%%mzn-stat: initTime=0.012960998
%%%mzn-stat: objective=175
%%%mzn-stat: nodes=4749
%%%mzn-stat: restarts=0
%%%mzn-stat: peakDepth=523
%%%mzn-stat: solveTime=3.3284575800000002
%%%mzn-stat: variables=1333
%%%mzn-stat: propagators=1017
%%%mzn-stat: failures=3540
%%%mzn-stat: propagations=235031
%%%mzn-stat: nogoods=3540
%%%mzn-stat: AverageConflictSize=65.97824858757062
%%%mzn-stat: NumUnitNogoodsLearned=174
%%%mzn-stat: AverageLearnedNogoodLength=92.17824858757062
%%%mzn-stat: AverageBacktrackAmount=0
%%%mzn-stat: AverageLbd=40.43531073446328
%%%mzn-stat-end
maxleg = 175;
succ = array1d(1..100,[59, 31, 61, 56, 40, 43, 25, 14, 11, 65, 42, 29, 30, 95, 80, 12, 6, 47, 26, 13, 62, 44, 77, 7, 18, 73, 100, 75, 86, 74, 3, 90, 19, 52, 97, 46, 24, 94, 37, 50, 1, 23, 28, 41, 92, 68, 10, 83, 58, 33, 81, 54, 78, 89, 57, 51, 91, 39, 4, 5, 79, 20, 45, 60, 17, 85, 87, 15, 49, 67, 63, 98, 84, 22, 70, 21, 76, 38, 8, 27, 16, 72, 99, 32, 96, 48, 34, 69, 9, 36, 93, 64, 66, 71, 53, 88, 55, 2, 82, 35]);
% time elapsed: 3.62 s
----------
==========
% time elapsed: 3.62 s
%%%mzn-stat: initTime=0.012960998
%%%mzn-stat: objective=175
%%%mzn-stat: nodes=4749
%%%mzn-stat: restarts=0
%%%mzn-stat: peakDepth=523
%%%mzn-stat: solveTime=3.328461515
%%%mzn-stat: variables=1333
%%%mzn-stat: propagators=1017
%%%mzn-stat: failures=3540
%%%mzn-stat: propagations=235031
%%%mzn-stat: nogoods=3540
%%%mzn-stat: AverageConflictSize=65.97824858757062
%%%mzn-stat: NumUnitNogoodsLearned=174
%%%mzn-stat: AverageLearnedNogoodLength=92.17824858757062
%%%mzn-stat: AverageBacktrackAmount=0
%%%mzn-stat: AverageLbd=40.43531073446328
%%%mzn-stat-end
